<number of tasks>
20

<cycle time>
1000

<order strength>
0,211


<task times>
1 46
2 135
3 114
4 140
5 58
6 244
7 158
8 27
9 142
10 190
11 31
12 120
13 186
14 67
15 300
16 147
17 276
18 146
19 52
20 93

<precedence relations>
1,5
2,6
3,7
5,11
6,8
6,9
6,10
6,12
8,15
9,13
10,14
11,16
12,17
13,18
14,19
15,20

<end>
